Instance: E256-14k.dat
Class:  1
  255 --- number of customers (no depot)
   14 --- number of vehicles
  255 --- number of items
Capacity - height - width of vehicles
  1000     40     20
Node - x - y - demand
    0     0.0   -15.0     0.0
    1    -1.0   -14.0   300.0
    2     1.0   -14.0   300.0
    3    -2.0   -13.0   180.0
    4     0.0   -13.0   300.0
    5     2.0   -13.0   180.0
    6    -3.0   -12.0   128.0
    7    -1.0   -12.0   180.0
    8     1.0   -12.0   180.0
    9     3.0   -12.0   128.0
   10    -4.0   -11.0   100.0
   11    -2.0   -11.0   128.0
   12     0.0   -11.0   180.0
   13     2.0   -11.0   128.0
   14     4.0   -11.0   100.0
   15    -5.0   -10.0    81.0
   16    -3.0   -10.0   100.0
   17    -1.0   -10.0   128.0
   18     1.0   -10.0   128.0
   19     3.0   -10.0   100.0
   20     5.0   -10.0    81.0
   21    -6.0    -9.0    69.0
   22    -4.0    -9.0    81.0
   23    -2.0    -9.0   100.0
   24     0.0    -9.0   128.0
   25     2.0    -9.0   100.0
   26     4.0    -9.0    81.0
   27     6.0    -9.0    69.0
   28    -7.0    -8.0    60.0
   29    -5.0    -8.0    69.0
   30    -3.0    -8.0    81.0
   31    -1.0    -8.0   100.0
   32     1.0    -8.0   100.0
   33     3.0    -8.0    81.0
   34     5.0    -8.0    69.0
   35     7.0    -8.0    60.0
   36    -8.0    -7.0    52.0
   37    -6.0    -7.0    60.0
   38    -4.0    -7.0    69.0
   39    -2.0    -7.0    81.0
   40     0.0    -7.0   100.0
   41     2.0    -7.0    81.0
   42     4.0    -7.0    69.0
   43     6.0    -7.0    60.0
   44     8.0    -7.0    52.0
   45    -9.0    -6.0    47.0
   46    -7.0    -6.0    52.0
   47    -5.0    -6.0    60.0
   48    -3.0    -6.0    69.0
   49    -1.0    -6.0    81.0
   50     1.0    -6.0    81.0
   51     3.0    -6.0    69.0
   52     5.0    -6.0    60.0
   53     7.0    -6.0    52.0
   54     9.0    -6.0    47.0
   55   -10.0    -5.0    42.0
   56    -8.0    -5.0    47.0
   57    -6.0    -5.0    52.0
   58    -4.0    -5.0    60.0
   59    -2.0    -5.0    69.0
   60     0.0    -5.0    81.0
   61     2.0    -5.0    69.0
   62     4.0    -5.0    60.0
   63     6.0    -5.0    52.0
   64     8.0    -5.0    47.0
   65    10.0    -5.0    42.0
   66   -11.0    -4.0    39.0
   67    -9.0    -4.0    42.0
   68    -7.0    -4.0    47.0
   69    -5.0    -4.0    52.0
   70    -3.0    -4.0    60.0
   71    -1.0    -4.0    69.0
   72     1.0    -4.0    69.0
   73     3.0    -4.0    60.0
   74     5.0    -4.0    52.0
   75     7.0    -4.0    47.0
   76     9.0    -4.0    42.0
   77    11.0    -4.0    39.0
   78   -12.0    -3.0    36.0
   79   -10.0    -3.0    39.0
   80    -8.0    -3.0    42.0
   81    -6.0    -3.0    47.0
   82    -4.0    -3.0    52.0
   83    -2.0    -3.0    60.0
   84     0.0    -3.0    69.0
   85     2.0    -3.0    60.0
   86     4.0    -3.0    52.0
   87     6.0    -3.0    47.0
   88     8.0    -3.0    42.0
   89    10.0    -3.0    39.0
   90    12.0    -3.0    36.0
   91   -13.0    -2.0    33.0
   92   -11.0    -2.0    36.0
   93    -9.0    -2.0    39.0
   94    -7.0    -2.0    42.0
   95    -5.0    -2.0    47.0
   96    -3.0    -2.0    52.0
   97    -1.0    -2.0    60.0
   98     1.0    -2.0    60.0
   99     3.0    -2.0    52.0
  100     5.0    -2.0    47.0
  101     7.0    -2.0    42.0
  102     9.0    -2.0    39.0
  103    11.0    -2.0    36.0
  104    13.0    -2.0    33.0
  105   -14.0    -1.0    31.0
  106   -12.0    -1.0    33.0
  107   -10.0    -1.0    36.0
  108    -8.0    -1.0    39.0
  109    -6.0    -1.0    42.0
  110    -4.0    -1.0    47.0
  111    -2.0    -1.0    52.0
  112     0.0    -1.0    60.0
  113     2.0    -1.0    52.0
  114     4.0    -1.0    47.0
  115     6.0    -1.0    42.0
  116     8.0    -1.0    39.0
  117    10.0    -1.0    36.0
  118    12.0    -1.0    33.0
  119    14.0    -1.0    31.0
  120   -15.0     0.0    29.0
  121   -13.0     0.0    31.0
  122   -11.0     0.0    33.0
  123    -9.0     0.0    36.0
  124    -7.0     0.0    39.0
  125    -5.0     0.0    42.0
  126    -3.0     0.0    47.0
  127    -1.0     0.0    52.0
  128     1.0     0.0    52.0
  129     3.0     0.0    47.0
  130     5.0     0.0    42.0
  131     7.0     0.0    39.0
  132     9.0     0.0    36.0
  133    11.0     0.0    33.0
  134    13.0     0.0    31.0
  135    15.0     0.0    29.0
  136   -14.0     1.0    29.0
  137   -12.0     1.0    31.0
  138   -10.0     1.0    33.0
  139    -8.0     1.0    36.0
  140    -6.0     1.0    39.0
  141    -4.0     1.0    42.0
  142    -2.0     1.0    47.0
  143     0.0     1.0    52.0
  144     2.0     1.0    47.0
  145     4.0     1.0    42.0
  146     6.0     1.0    39.0
  147     8.0     1.0    36.0
  148    10.0     1.0    33.0
  149    12.0     1.0    31.0
  150    14.0     1.0    29.0
  151   -13.0     2.0    29.0
  152   -11.0     2.0    31.0
  153    -9.0     2.0    33.0
  154    -7.0     2.0    36.0
  155    -5.0     2.0    39.0
  156    -3.0     2.0    42.0
  157    -1.0     2.0    47.0
  158     1.0     2.0    47.0
  159     3.0     2.0    42.0
  160     5.0     2.0    39.0
  161     7.0     2.0    36.0
  162     9.0     2.0    33.0
  163    11.0     2.0    31.0
  164    13.0     2.0    29.0
  165   -12.0     3.0    29.0
  166   -10.0     3.0    31.0
  167    -8.0     3.0    33.0
  168    -6.0     3.0    36.0
  169    -4.0     3.0    39.0
  170    -2.0     3.0    42.0
  171     0.0     3.0    47.0
  172     2.0     3.0    42.0
  173     4.0     3.0    39.0
  174     6.0     3.0    36.0
  175     8.0     3.0    33.0
  176    10.0     3.0    31.0
  177    12.0     3.0    29.0
  178   -11.0     4.0    29.0
  179    -9.0     4.0    31.0
  180    -7.0     4.0    33.0
  181    -5.0     4.0    36.0
  182    -3.0     4.0    39.0
  183    -1.0     4.0    42.0
  184     1.0     4.0    42.0
  185     3.0     4.0    39.0
  186     5.0     4.0    36.0
  187     7.0     4.0    33.0
  188     9.0     4.0    31.0
  189    11.0     4.0    29.0
  190   -10.0     5.0    29.0
  191    -8.0     5.0    31.0
  192    -6.0     5.0    33.0
  193    -4.0     5.0    36.0
  194    -2.0     5.0    39.0
  195     0.0     5.0    42.0
  196     2.0     5.0    39.0
  197     4.0     5.0    36.0
  198     6.0     5.0    33.0
  199     8.0     5.0    31.0
  200    10.0     5.0    29.0
  201    -9.0     6.0    29.0
  202    -7.0     6.0    31.0
  203    -5.0     6.0    33.0
  204    -3.0     6.0    36.0
  205    -1.0     6.0    39.0
  206     1.0     6.0    39.0
  207     3.0     6.0    36.0
  208     5.0     6.0    33.0
  209     7.0     6.0    31.0
  210     9.0     6.0    29.0
  211    -8.0     7.0    29.0
  212    -6.0     7.0    31.0
  213    -4.0     7.0    33.0
  214    -2.0     7.0    36.0
  215     0.0     7.0    39.0
  216     2.0     7.0    36.0
  217     4.0     7.0    33.0
  218     6.0     7.0    31.0
  219     8.0     7.0    29.0
  220    -7.0     8.0    29.0
  221    -5.0     8.0    31.0
  222    -3.0     8.0    33.0
  223    -1.0     8.0    36.0
  224     1.0     8.0    36.0
  225     3.0     8.0    33.0
  226     5.0     8.0    31.0
  227     7.0     8.0    29.0
  228    -6.0     9.0    29.0
  229    -4.0     9.0    31.0
  230    -2.0     9.0    33.0
  231     0.0     9.0    36.0
  232     2.0     9.0    33.0
  233     4.0     9.0    31.0
  234     6.0     9.0    29.0
  235    -5.0    10.0    29.0
  236    -3.0    10.0    31.0
  237    -1.0    10.0    33.0
  238     1.0    10.0    33.0
  239     3.0    10.0    31.0
  240     5.0    10.0    29.0
  241    -4.0    11.0    29.0
  242    -2.0    11.0    31.0
  243     0.0    11.0    33.0
  244     2.0    11.0    31.0
  245     4.0    11.0    29.0
  246    -3.0    12.0    29.0
  247    -1.0    12.0    31.0
  248     1.0    12.0    31.0
  249     3.0    12.0    29.0
  250    -2.0    13.0    29.0
  251     0.0    13.0    31.0
  252     2.0    13.0    29.0
  253    -1.0    14.0    29.0
  254     1.0    14.0    29.0
  255     0.0    15.0    29.0
Node - number of items - h - w for each item
    0   0
    1   1    1    1
    2   1    1    1
    3   1    1    1
    4   1    1    1
    5   1    1    1
    6   1    1    1
    7   1    1    1
    8   1    1    1
    9   1    1    1
   10   1    1    1
   11   1    1    1
   12   1    1    1
   13   1    1    1
   14   1    1    1
   15   1    1    1
   16   1    1    1
   17   1    1    1
   18   1    1    1
   19   1    1    1
   20   1    1    1
   21   1    1    1
   22   1    1    1
   23   1    1    1
   24   1    1    1
   25   1    1    1
   26   1    1    1
   27   1    1    1
   28   1    1    1
   29   1    1    1
   30   1    1    1
   31   1    1    1
   32   1    1    1
   33   1    1    1
   34   1    1    1
   35   1    1    1
   36   1    1    1
   37   1    1    1
   38   1    1    1
   39   1    1    1
   40   1    1    1
   41   1    1    1
   42   1    1    1
   43   1    1    1
   44   1    1    1
   45   1    1    1
   46   1    1    1
   47   1    1    1
   48   1    1    1
   49   1    1    1
   50   1    1    1
   51   1    1    1
   52   1    1    1
   53   1    1    1
   54   1    1    1
   55   1    1    1
   56   1    1    1
   57   1    1    1
   58   1    1    1
   59   1    1    1
   60   1    1    1
   61   1    1    1
   62   1    1    1
   63   1    1    1
   64   1    1    1
   65   1    1    1
   66   1    1    1
   67   1    1    1
   68   1    1    1
   69   1    1    1
   70   1    1    1
   71   1    1    1
   72   1    1    1
   73   1    1    1
   74   1    1    1
   75   1    1    1
   76   1    1    1
   77   1    1    1
   78   1    1    1
   79   1    1    1
   80   1    1    1
   81   1    1    1
   82   1    1    1
   83   1    1    1
   84   1    1    1
   85   1    1    1
   86   1    1    1
   87   1    1    1
   88   1    1    1
   89   1    1    1
   90   1    1    1
   91   1    1    1
   92   1    1    1
   93   1    1    1
   94   1    1    1
   95   1    1    1
   96   1    1    1
   97   1    1    1
   98   1    1    1
   99   1    1    1
  100   1    1    1
  101   1    1    1
  102   1    1    1
  103   1    1    1
  104   1    1    1
  105   1    1    1
  106   1    1    1
  107   1    1    1
  108   1    1    1
  109   1    1    1
  110   1    1    1
  111   1    1    1
  112   1    1    1
  113   1    1    1
  114   1    1    1
  115   1    1    1
  116   1    1    1
  117   1    1    1
  118   1    1    1
  119   1    1    1
  120   1    1    1
  121   1    1    1
  122   1    1    1
  123   1    1    1
  124   1    1    1
  125   1    1    1
  126   1    1    1
  127   1    1    1
  128   1    1    1
  129   1    1    1
  130   1    1    1
  131   1    1    1
  132   1    1    1
  133   1    1    1
  134   1    1    1
  135   1    1    1
  136   1    1    1
  137   1    1    1
  138   1    1    1
  139   1    1    1
  140   1    1    1
  141   1    1    1
  142   1    1    1
  143   1    1    1
  144   1    1    1
  145   1    1    1
  146   1    1    1
  147   1    1    1
  148   1    1    1
  149   1    1    1
  150   1    1    1
  151   1    1    1
  152   1    1    1
  153   1    1    1
  154   1    1    1
  155   1    1    1
  156   1    1    1
  157   1    1    1
  158   1    1    1
  159   1    1    1
  160   1    1    1
  161   1    1    1
  162   1    1    1
  163   1    1    1
  164   1    1    1
  165   1    1    1
  166   1    1    1
  167   1    1    1
  168   1    1    1
  169   1    1    1
  170   1    1    1
  171   1    1    1
  172   1    1    1
  173   1    1    1
  174   1    1    1
  175   1    1    1
  176   1    1    1
  177   1    1    1
  178   1    1    1
  179   1    1    1
  180   1    1    1
  181   1    1    1
  182   1    1    1
  183   1    1    1
  184   1    1    1
  185   1    1    1
  186   1    1    1
  187   1    1    1
  188   1    1    1
  189   1    1    1
  190   1    1    1
  191   1    1    1
  192   1    1    1
  193   1    1    1
  194   1    1    1
  195   1    1    1
  196   1    1    1
  197   1    1    1
  198   1    1    1
  199   1    1    1
  200   1    1    1
  201   1    1    1
  202   1    1    1
  203   1    1    1
  204   1    1    1
  205   1    1    1
  206   1    1    1
  207   1    1    1
  208   1    1    1
  209   1    1    1
  210   1    1    1
  211   1    1    1
  212   1    1    1
  213   1    1    1
  214   1    1    1
  215   1    1    1
  216   1    1    1
  217   1    1    1
  218   1    1    1
  219   1    1    1
  220   1    1    1
  221   1    1    1
  222   1    1    1
  223   1    1    1
  224   1    1    1
  225   1    1    1
  226   1    1    1
  227   1    1    1
  228   1    1    1
  229   1    1    1
  230   1    1    1
  231   1    1    1
  232   1    1    1
  233   1    1    1
  234   1    1    1
  235   1    1    1
  236   1    1    1
  237   1    1    1
  238   1    1    1
  239   1    1    1
  240   1    1    1
  241   1    1    1
  242   1    1    1
  243   1    1    1
  244   1    1    1
  245   1    1    1
  246   1    1    1
  247   1    1    1
  248   1    1    1
  249   1    1    1
  250   1    1    1
  251   1    1    1
  252   1    1    1
  253   1    1    1
  254   1    1    1
  255   1    1    1
